-1
-1
0
0
1
1
0
1
1
1
1
1
1
1
0
0
AAAA/wAAAAAAAAABAAAAAAAAAAwAAAAAAAAAAAAAAAANCRgAAAAEAAAADAAAAGQAAAALAAAAZAAAAAMAAABkAAAAAAAAAGQAAAOEAAAADQEBAQAAAAAAAAAAAAAAAABk/////wAAAIQAAAAAAAAABgAAAAAAAAABAAAAAAAAAMgAAAACAAAAAAAAAAAAAAABAAAAAAAAArwAAAAHAAAAAAAAAAAAAAABAAAAAAAAAAAAAAABAAAAAA==
AAAA/wAAAAAAAAABAAAAAAAAAAwAAAAAAAAAAAAAAAAAAAAAAAAAAS0AAAAEAQEBAAAAAAAAAAAAAAAAAGT/////AAAAhAAAAAAAAAAEAAAAAAAAAAEAAAAAAAAArwAAAAEAAAAAAAAAfgAAAAEAAAAAAAAAAAAAAAEAAAAA
0
1
2
3
4
5
6
7
8
9
10
12
11
0